examples/con/graph-20-48.param
$ generated by rg.pl with seed 48
letting n be 20
$ 34 edges
letting E be {{2,13},{9,19},{17,19},{2,10},{1,4},{12,16},{12,18},{4,10},{9,17},{3,7},{3,11},{11,12},{6,16},{12,19},{10,15},{5,20},{8,10},{17,18},{3,17},{7,18},{18,19},{6,20},{5,9},{10,20},{1,5},{2,7},{7,20},{3,15},{5,16},{7,17},{5,6},{8,17},{14,20},{10,12}}
